36 2000
2 199
7 188
2 122
9 107
10 119
5 112
4 114
9 190
10 188
3 105
9 169
3 125
10 114
7 109
3 199
8 184
5 109
11 134
2 184
5 174
11 134
10 121
4 169
4 103
3 174
9 112
9 152
7 107
8 152
4 119
2 125
4 105
9 190
10 122
11 121
8 103
